sat
(
  (define-fun H () String
    "")
  (define-fun I () String
    "")
  (define-fun K () String
    "")
  (define-fun G () String
    "aabaa")
  (define-fun O () String
    "")
  (define-fun M () String
    "")
  (define-fun L () String
    "aaaa")
  (define-fun P () String
    "bbaa")
  (define-fun N () String
    "aa")
)
